; asyncpg :: corpus-study/repo_src/asyncpg/asyncpg/pool.py :: QUEUE 'Pool._queue' :: structured encoding (verdict: unsat)
; Generated by snf-pipeline (encoder.py) -- run with any
; SMT-LIB2-compliant solver, e.g. `z3 asyncpg__corpus-study_repo_src_asyncpg_asyncpg_pool.py__Pool._queue__structured.smt2`
; benchmark generated from python API
(set-info :status unknown)
(declare-fun order_0 () Int)
(assert
 (>= order_0 1))
(assert
 (<= order_0 1))
(assert
 (and true))
(assert
 false)
(check-sat)
